letting n = 9
letting board=[[7, 7, 7, 7, 7, 7, 7, 1, 1], [7, 7, 8, 8, 7, 7, 7, 1, 1], [7, 7, 8, 3, 3, 1, 1, 1, 1], [6, 7, 8, 8, 3, 0, 1, 4, 1], [6, 6, 6, 8, 3, 0, 1, 4, 1], [6, 6, 6, 8, 3, 0, 0, 4, 4], [6, 6, 6, 6, 3, 3, 0, 5, 4], [6, 6, 6, 6, 2, 0, 0, 5, 4], [2, 2, 2, 2, 2, 5, 5, 5, 5]]
